c Cardinality constraint <=k(x_1,...,x_n) for k = 1 and n = 8.
p cnf 15 20
-1 9 0
-2 10 0
-9 10 0
-2 -9 0
-3 11 0
-10 11 0
-3 -10 0
-4 12 0
-11 12 0
-4 -11 0
-5 13 0
-12 13 0
-5 -12 0
-6 14 0
-13 14 0
-6 -13 0
-7 15 0
-14 15 0
-7 -14 0
-8 -15 0
